\ENCODING=ISO-8859-1
\Problem name: IloCplex

Maximize
 obj: 1106 vnp1 - 52 (π,ρ)0↑e1 - 61 (π,ρ)1↑e1
      - 50 (π,ρ)2↑e1 - 50 (π,ρ)3↑e1
      - 63 (π,ρ)4↑e1 - 58 (π,ρ)5↑e1
      - 32 (π,ρ)6↑e1 - 32 (π,ρ)7↑e1
      - 18 (π,ρ)8↑e1 - 49 (π,ρ)9↑e1
      - 53 (π,ρ)10↑e1 - 67 (π,ρ)11↑e1
      - 39 (π,ρ)12↑e1 - 25 (π,ρ)13↑e1
      - 33 (π,ρ)14↑e1 - 96 (π,ρ)15↑e2
      - 145 (π,ρ)16↑e3 - 249 (π,ρ)17↑e3
      - 148 (π,ρ)18↑e3 - 196 (π,ρ)19↑e3
      - 117 (π,ρ)20↑e3 - 211 (π,ρ)21↑e3
      - 220 (π,ρ)22↑e3 - 237 (π,ρ)23↑e3
      - 217 (π,ρ)24↑e3 - 185 (π,ρ)25↑e3
      - 140 (π,ρ)26↑e3 - 183 (π,ρ)27↑e3
      - 166 (π,ρ)28↑e3 - 200 (π,ρ)29↑e3
      - 294 (π,ρ)30↑e3 - 14 (π,ρ)31↑e4 + 1838 vnp2
      - 34 (π,ρ)32↑e5 - 219 (π,ρ)33↑e6
      - 275 (π,ρ)34↑e6 - 152 (π,ρ)35↑e6
      - 204 (π,ρ)36↑e6 - 180 (π,ρ)37↑e6
      - 290 (π,ρ)38↑e6 - 227 (π,ρ)39↑e6
      - 245 (π,ρ)40↑e6 - 325 (π,ρ)41↑e6
      - 229 (π,ρ)42↑e6 - 135 (π,ρ)43↑e6
      - 297 (π,ρ)44↑e6 - 240 (π,ρ)45↑e6
      - 250 (π,ρ)46↑e6 - 345 (π,ρ)47↑e6
      - 280 (π,ρ)48↑e7 - 218 (π,ρ)49↑e7
      - 198 (π,ρ)50↑e7 - 327 (π,ρ)51↑e7
      - 225 (π,ρ)52↑e7 - 233 (π,ρ)53↑e7
      - 336 (π,ρ)54↑e7 - 339 (π,ρ)55↑e7
      - 358 (π,ρ)56↑e7 - 367 (π,ρ)57↑e7
      - 265 (π,ρ)58↑e7 - 273 (π,ρ)59↑e7
      - 220 (π,ρ)60↑e7 - 265 (π,ρ)61↑e7
      - 298 (π,ρ)62↑e7 - 26 (π,ρ)63↑e8
      - 83 (π,ρ)64↑e8 - 50 (π,ρ)65↑e8
      - 79 (π,ρ)66↑e8 - 94 (π,ρ)67↑e8
      - 81 (π,ρ)68↑e8 - 148 (π,ρ)69↑e8
      - 163 (π,ρ)70↑e8 - 150 (π,ρ)71↑e8
      - 60 (π,ρ)72↑e8 - 137 (π,ρ)73↑e8
      - 64 (π,ρ)74↑e8 - 54 (π,ρ)75↑e8
      - 125 (π,ρ)76↑e8 - 108 (π,ρ)77↑e8
      - 112 (π,ρ)78↑e9 - 145 (π,ρ)79↑e9
      - 72 (π,ρ)80↑e9 - 100 (π,ρ)81↑e9
      - 110 (π,ρ)82↑e9 - 83 (π,ρ)83↑e9
      - 181 (π,ρ)84↑e9 - 179 (π,ρ)85↑e9
      - 237 (π,ρ)86↑e9 - 114 (π,ρ)87↑e9
      - 151 (π,ρ)88↑e9 - 160 (π,ρ)89↑e9
      - 178 (π,ρ)90↑e9 - 138 (π,ρ)91↑e9
      - 275 (π,ρ)92↑e9 - 213 (π,ρ)93↑e10
      - 134 (π,ρ)94↑e10 - 146 (π,ρ)95↑e10
      - 225 (π,ρ)96↑e10 - 186 (π,ρ)97↑e10
      - 132 (π,ρ)98↑e10 - 120 (π,ρ)99↑e10
      - 177 (π,ρ)100↑e10 - 135 (π,ρ)101↑e10
      - 165 (π,ρ)102↑e10 - 177 (π,ρ)103↑e10
      - 200 (π,ρ)104↑e10 - 180 (π,ρ)105↑e10
      - 212 (π,ρ)106↑e10 - 156 (π,ρ)107↑e10
Subject To
 _EmbdConstr_vnp1e1#0:   vnp1 - (π,ρ)0↑e1 - (π,ρ)1↑e1
                         - (π,ρ)2↑e1 - (π,ρ)3↑e1
                         - (π,ρ)4↑e1 - (π,ρ)5↑e1
                         - (π,ρ)6↑e1 - (π,ρ)7↑e1
                         - (π,ρ)8↑e1 - (π,ρ)9↑e1
                         - (π,ρ)10↑e1 - (π,ρ)11↑e1
                         - (π,ρ)12↑e1 - (π,ρ)13↑e1
                         - (π,ρ)14↑e1  = 0
 _EmbdConstr_vnp1e2#1:   vnp1 - (π,ρ)15↑e2  = 0
 _EmbdConstr_vnp1e3#2:   vnp1 - (π,ρ)16↑e3 - (π,ρ)17↑e3
                         - (π,ρ)18↑e3 - (π,ρ)19↑e3
                         - (π,ρ)20↑e3 - (π,ρ)21↑e3
                         - (π,ρ)22↑e3 - (π,ρ)23↑e3
                         - (π,ρ)24↑e3 - (π,ρ)25↑e3
                         - (π,ρ)26↑e3 - (π,ρ)27↑e3
                         - (π,ρ)28↑e3 - (π,ρ)29↑e3
                         - (π,ρ)30↑e3  = 0
 _EmbdConstr_vnp1e4#3:   vnp1 - (π,ρ)31↑e4  = 0
 _EmbdConstr_vnp2e5#4:   vnp2 - (π,ρ)32↑e5  = 0
 _EmbdConstr_vnp2e6#5:   vnp2 - (π,ρ)33↑e6 - (π,ρ)34↑e6
                         - (π,ρ)35↑e6 - (π,ρ)36↑e6
                         - (π,ρ)37↑e6 - (π,ρ)38↑e6
                         - (π,ρ)39↑e6 - (π,ρ)40↑e6
                         - (π,ρ)41↑e6 - (π,ρ)42↑e6
                         - (π,ρ)43↑e6 - (π,ρ)44↑e6
                         - (π,ρ)45↑e6 - (π,ρ)46↑e6
                         - (π,ρ)47↑e6  = 0
 _EmbdConstr_vnp2e7#6:   vnp2 - (π,ρ)48↑e7 - (π,ρ)49↑e7
                         - (π,ρ)50↑e7 - (π,ρ)51↑e7
                         - (π,ρ)52↑e7 - (π,ρ)53↑e7
                         - (π,ρ)54↑e7 - (π,ρ)55↑e7
                         - (π,ρ)56↑e7 - (π,ρ)57↑e7
                         - (π,ρ)58↑e7 - (π,ρ)59↑e7
                         - (π,ρ)60↑e7 - (π,ρ)61↑e7
                         - (π,ρ)62↑e7  = 0
 _EmbdConstr_vnp2e8#7:   vnp2 - (π,ρ)63↑e8 - (π,ρ)64↑e8
                         - (π,ρ)65↑e8 - (π,ρ)66↑e8
                         - (π,ρ)67↑e8 - (π,ρ)68↑e8
                         - (π,ρ)69↑e8 - (π,ρ)70↑e8
                         - (π,ρ)71↑e8 - (π,ρ)72↑e8
                         - (π,ρ)73↑e8 - (π,ρ)74↑e8
                         - (π,ρ)75↑e8 - (π,ρ)76↑e8
                         - (π,ρ)77↑e8  = 0
 _EmbdConstr_vnp2e9#8:   vnp2 - (π,ρ)78↑e9 - (π,ρ)79↑e9
                         - (π,ρ)80↑e9 - (π,ρ)81↑e9
                         - (π,ρ)82↑e9 - (π,ρ)83↑e9
                         - (π,ρ)84↑e9 - (π,ρ)85↑e9
                         - (π,ρ)86↑e9 - (π,ρ)87↑e9
                         - (π,ρ)88↑e9 - (π,ρ)89↑e9
                         - (π,ρ)90↑e9 - (π,ρ)91↑e9
                         - (π,ρ)92↑e9  = 0
 _EmbdConstr_vnp2e10#9:  vnp2 - (π,ρ)93↑e10 - (π,ρ)94↑e10
                         - (π,ρ)95↑e10 - (π,ρ)96↑e10
                         - (π,ρ)97↑e10 - (π,ρ)98↑e10
                         - (π,ρ)99↑e10 - (π,ρ)100↑e10
                         - (π,ρ)101↑e10 - (π,ρ)102↑e10
                         - (π,ρ)103↑e10 - (π,ρ)104↑e10
                         - (π,ρ)105↑e10 - (π,ρ)106↑e10
                         - (π,ρ)107↑e10  = 0
 BwCapConstr_slink1#10:  5 (π,ρ)33↑e6 + 5 (π,ρ)34↑e6
                         + 5 (π,ρ)35↑e6 + 2 (π,ρ)36↑e6
                         + 5 (π,ρ)38↑e6 + 5 (π,ρ)39↑e6
                         + 5 (π,ρ)40↑e6 + 5 (π,ρ)41↑e6
                         + 5 (π,ρ)42↑e6 + 5 (π,ρ)43↑e6
                         + 5 (π,ρ)44↑e6 + 5 (π,ρ)45↑e6
                         + 5 (π,ρ)46↑e6 + 5 (π,ρ)47↑e6
                         + 5 (π,ρ)48↑e7 + 5 (π,ρ)49↑e7
                         + 5 (π,ρ)50↑e7 + 5 (π,ρ)51↑e7
                         + 5 (π,ρ)52↑e7 + 5 (π,ρ)53↑e7
                         + 3 (π,ρ)54↑e7 + 2 (π,ρ)56↑e7
                         + 5 (π,ρ)57↑e7 + 5 (π,ρ)58↑e7
                         + 5 (π,ρ)59↑e7 + 2 (π,ρ)62↑e7
                         + 3 (π,ρ)93↑e10 + 3 (π,ρ)94↑e10
                         + 3 (π,ρ)95↑e10 + 3 (π,ρ)96↑e10
                         + 3 (π,ρ)97↑e10 + 3 (π,ρ)98↑e10
                         + 3 (π,ρ)99↑e10 + 3 (π,ρ)100↑e10
                         + 3 (π,ρ)101↑e10
                         + 3 (π,ρ)102↑e10
                         + 3 (π,ρ)103↑e10
                         + 3 (π,ρ)104↑e10
                         + 3 (π,ρ)105↑e10
                         + 3 (π,ρ)106↑e10
                         + 3 (π,ρ)107↑e10 <= 14
 BwCapConstr_slink2#11:  2 (π,ρ)33↑e6 + 2 (π,ρ)35↑e6
                         + 5 (π,ρ)36↑e6 + 5 (π,ρ)37↑e6
                         + 5 (π,ρ)38↑e6 + (π,ρ)39↑e6
                         + 5 (π,ρ)40↑e6 + 2 (π,ρ)42↑e6
                         + (π,ρ)43↑e6 + 2 (π,ρ)44↑e6
                         + 5 (π,ρ)45↑e6 + 5 (π,ρ)46↑e6
                         + 5 (π,ρ)47↑e6 + 4 (π,ρ)50↑e7
                         + (π,ρ)51↑e7 + (π,ρ)52↑e7
                         + 4 (π,ρ)53↑e7 + 5 (π,ρ)54↑e7
                         + 5 (π,ρ)55↑e7 + 5 (π,ρ)56↑e7
                         + (π,ρ)57↑e7 + (π,ρ)58↑e7
                         + 4 (π,ρ)59↑e7 + 5 (π,ρ)60↑e7
                         + 5 (π,ρ)61↑e7 + 5 (π,ρ)62↑e7
                         + 3 (π,ρ)93↑e10 + 3 (π,ρ)94↑e10
                         + 3 (π,ρ)95↑e10 + 3 (π,ρ)96↑e10
                         + 3 (π,ρ)97↑e10 + 3 (π,ρ)98↑e10
                         + 3 (π,ρ)99↑e10 + 3 (π,ρ)100↑e10
                         + 3 (π,ρ)102↑e10
                         + 3 (π,ρ)103↑e10
                         + 3 (π,ρ)104↑e10
                         + 3 (π,ρ)105↑e10
                         + 3 (π,ρ)106↑e10 <= 14
 BwCapConstr_slink5#12:  4 (π,ρ)15↑e2 + 3 (π,ρ)35↑e6
                         + 5 (π,ρ)36↑e6 + 5 (π,ρ)37↑e6
                         + 5 (π,ρ)38↑e6 + 5 (π,ρ)39↑e6
                         + 5 (π,ρ)40↑e6 + (π,ρ)43↑e6
                         + 5 (π,ρ)60↑e7 + 5 (π,ρ)61↑e7
                         + 5 (π,ρ)62↑e7 + 3 (π,ρ)98↑e10
                         + 3 (π,ρ)102↑e10
                         + 3 (π,ρ)103↑e10
                         + 3 (π,ρ)104↑e10 <= 8
 BwCapConstr_slink6#13:  (π,ρ)12↑e1 + (π,ρ)13↑e1
                         + (π,ρ)14↑e1 + 4 (π,ρ)15↑e2
                         + (π,ρ)35↑e6 + 3 (π,ρ)36↑e6
                         + 5 (π,ρ)38↑e6 + 5 (π,ρ)39↑e6
                         + 5 (π,ρ)40↑e6 + 5 (π,ρ)41↑e6
                         + 5 (π,ρ)47↑e6 + 5 (π,ρ)61↑e7
                         + 5 (π,ρ)62↑e7 + 2 (π,ρ)86↑e9
                         + 2 (π,ρ)88↑e9 <= 18
 BwCapConstr_slink7#14:  (π,ρ)4↑e1 + 5 (π,ρ)33↑e6
                         + 5 (π,ρ)34↑e6 + 5 (π,ρ)41↑e6
                         + 5 (π,ρ)42↑e6 + 5 (π,ρ)44↑e6
                         + 5 (π,ρ)45↑e6 + 5 (π,ρ)46↑e6
                         + 5 (π,ρ)47↑e6 + 5 (π,ρ)48↑e7
                         + 5 (π,ρ)51↑e7 + 5 (π,ρ)54↑e7
                         + 5 (π,ρ)55↑e7 + 5 (π,ρ)56↑e7
                         + 5 (π,ρ)57↑e7 <= 9
 BwCapConstr_slink8#15:  5 (π,ρ)49↑e7 + (π,ρ)50↑e7
                         + 3 (π,ρ)52↑e7 + (π,ρ)53↑e7
                         + 3 (π,ρ)58↑e7 + (π,ρ)59↑e7
                         + 2 (π,ρ)95↑e10 + 3 (π,ρ)101↑e10
                         + 3 (π,ρ)107↑e10 <= 10
 BwCapConstr_slink9#16:  (π,ρ)1↑e1 + (π,ρ)3↑e1
                         + (π,ρ)4↑e1 + (π,ρ)5↑e1
                         + (π,ρ)6↑e1 + (π,ρ)7↑e1
                         + (π,ρ)8↑e1 + (π,ρ)9↑e1
                         + (π,ρ)11↑e1 + (π,ρ)14↑e1
                         + (π,ρ)23↑e3 <= 14
 BwCapConstr_slink12#17: (π,ρ)0↑e1 + (π,ρ)1↑e1
                         + (π,ρ)2↑e1 + (π,ρ)5↑e1
                         + (π,ρ)9↑e1 + (π,ρ)10↑e1
                         + (π,ρ)11↑e1 + (π,ρ)21↑e3
                         + (π,ρ)30↑e3 + 5 (π,ρ)34↑e6
                         + 3 (π,ρ)38↑e6 + 5 (π,ρ)41↑e6
                         + 5 (π,ρ)44↑e6 + 3 (π,ρ)47↑e6
                         + 5 (π,ρ)48↑e7 + 5 (π,ρ)51↑e7
                         + 5 (π,ρ)54↑e7 + 5 (π,ρ)55↑e7
                         + 5 (π,ρ)56↑e7 + 5 (π,ρ)57↑e7
                         + 3 (π,ρ)61↑e7 + 5 (π,ρ)62↑e7
                         + 4 (π,ρ)64↑e8 + 4 (π,ρ)69↑e8
                         + 4 (π,ρ)70↑e8 + 4 (π,ρ)71↑e8
                         + 4 (π,ρ)73↑e8 + 4 (π,ρ)76↑e8
                         + (π,ρ)92↑e9 + 3 (π,ρ)93↑e10
                         + 3 (π,ρ)96↑e10 + 3 (π,ρ)104↑e10
                         <= 5
 BwCapConstr_slink13#18: (π,ρ)10↑e1 + (π,ρ)23↑e3
                         + 4 (π,ρ)30↑e3 + 2 (π,ρ)31↑e4
                         + 5 (π,ρ)33↑e6 + 5 (π,ρ)35↑e6
                         + 5 (π,ρ)36↑e6 + 5 (π,ρ)39↑e6
                         + 5 (π,ρ)40↑e6 + 5 (π,ρ)41↑e6
                         + 5 (π,ρ)42↑e6 + 5 (π,ρ)45↑e6
                         + 5 (π,ρ)46↑e6 + 5 (π,ρ)47↑e6
                         + 4 (π,ρ)69↑e8 + 4 (π,ρ)70↑e8
                         + 4 (π,ρ)71↑e8 + 5 (π,ρ)86↑e9
                         + 5 (π,ρ)88↑e9 + 5 (π,ρ)92↑e9
                         + 2 (π,ρ)106↑e10 <= 11
 BwCapConstr_slink14#19: 2 (π,ρ)18↑e3 + 4 (π,ρ)27↑e3
                         + 5 (π,ρ)33↑e6 + 5 (π,ρ)34↑e6
                         + 5 (π,ρ)35↑e6 + 5 (π,ρ)36↑e6
                         + 5 (π,ρ)37↑e6 + 5 (π,ρ)38↑e6
                         + 5 (π,ρ)39↑e6 + 5 (π,ρ)43↑e6
                         + 5 (π,ρ)45↑e6 + 5 (π,ρ)60↑e7
                         + 5 (π,ρ)81↑e9 + 5 (π,ρ)82↑e9
                         + 5 (π,ρ)83↑e9 + 5 (π,ρ)85↑e9
                         + 5 (π,ρ)87↑e9 + 3 (π,ρ)96↑e10
                         + 3 (π,ρ)97↑e10 + 3 (π,ρ)98↑e10
                         + 3 (π,ρ)102↑e10 <= 15
 BwCapConstr_slink15#20: (π,ρ)12↑e1 + (π,ρ)13↑e1
                         + (π,ρ)14↑e1 + 2 (π,ρ)18↑e3
                         + 5 (π,ρ)27↑e3 + 5 (π,ρ)37↑e6
                         + 5 (π,ρ)40↑e6 + 5 (π,ρ)42↑e6
                         + 5 (π,ρ)43↑e6 + 5 (π,ρ)44↑e6
                         + 5 (π,ρ)46↑e6 + 5 (π,ρ)48↑e7
                         + 5 (π,ρ)49↑e7 + 5 (π,ρ)50↑e7
                         + 5 (π,ρ)51↑e7 + 5 (π,ρ)52↑e7
                         + 5 (π,ρ)53↑e7 + 5 (π,ρ)54↑e7
                         + 3 (π,ρ)55↑e7 + 4 (π,ρ)56↑e7
                         + 5 (π,ρ)57↑e7 + 5 (π,ρ)58↑e7
                         + 5 (π,ρ)59↑e7 + 5 (π,ρ)60↑e7
                         + 5 (π,ρ)61↑e7 + 5 (π,ρ)62↑e7
                         + 4 (π,ρ)74↑e8 + 5 (π,ρ)81↑e9
                         + 5 (π,ρ)82↑e9 + 5 (π,ρ)83↑e9
                         + 2 (π,ρ)85↑e9 + 5 (π,ρ)86↑e9
                         + 2 (π,ρ)87↑e9 + 5 (π,ρ)88↑e9
                         + 3 (π,ρ)93↑e10 + 3 (π,ρ)94↑e10
                         + 3 (π,ρ)95↑e10 + 3 (π,ρ)99↑e10
                         + 3 (π,ρ)100↑e10
                         + 3 (π,ρ)101↑e10
                         + 3 (π,ρ)102↑e10
                         + 3 (π,ρ)103↑e10
                         + 3 (π,ρ)104↑e10
                         + 3 (π,ρ)105↑e10
                         + 3 (π,ρ)106↑e10
                         + 3 (π,ρ)107↑e10 <= 14
 BwCapConstr_slink16#21: 5 (π,ρ)16↑e3 + 5 (π,ρ)17↑e3
                         + 5 (π,ρ)18↑e3 + 5 (π,ρ)19↑e3
                         + 2 (π,ρ)22↑e3 + 2 (π,ρ)24↑e3
                         + 5 (π,ρ)25↑e3 + 5 (π,ρ)26↑e3
                         + 5 (π,ρ)27↑e3 + 2 (π,ρ)28↑e3
                         + 4 (π,ρ)29↑e3 + 5 (π,ρ)37↑e6
                         + 5 (π,ρ)40↑e6 + 5 (π,ρ)42↑e6
                         + 5 (π,ρ)43↑e6 + 5 (π,ρ)44↑e6
                         + 5 (π,ρ)46↑e6 + 4 (π,ρ)63↑e8
                         + 4 (π,ρ)64↑e8 + 4 (π,ρ)65↑e8
                         + 2 (π,ρ)66↑e8 + (π,ρ)67↑e8
                         + 2 (π,ρ)69↑e8 + (π,ρ)70↑e8
                         + 4 (π,ρ)75↑e8 + 4 (π,ρ)76↑e8
                         + 4 (π,ρ)77↑e8 + 5 (π,ρ)78↑e9
                         + 5 (π,ρ)79↑e9 + 5 (π,ρ)80↑e9
                         + 5 (π,ρ)82↑e9 + 5 (π,ρ)84↑e9
                         + 5 (π,ρ)87↑e9 + 5 (π,ρ)88↑e9
                         + 5 (π,ρ)89↑e9 + 5 (π,ρ)90↑e9
                         + 2 (π,ρ)91↑e9 + 3 (π,ρ)96↑e10
                         + 3 (π,ρ)97↑e10 + 3 (π,ρ)98↑e10
                         + 3 (π,ρ)100↑e10
                         + 3 (π,ρ)105↑e10
                         + 3 (π,ρ)106↑e10 <= 12
 BwCapConstr_slink18#22: 5 (π,ρ)51↑e7 + 5 (π,ρ)52↑e7
                         + 5 (π,ρ)53↑e7 + 5 (π,ρ)56↑e7
                         + 3 (π,ρ)67↑e8 + 3 (π,ρ)70↑e8
                         + 4 (π,ρ)75↑e8 + 4 (π,ρ)76↑e8
                         + 4 (π,ρ)77↑e8 + 5 (π,ρ)90↑e9
                         + 5 (π,ρ)91↑e9 + 5 (π,ρ)92↑e9
                         + 3 (π,ρ)105↑e10
                         + 3 (π,ρ)106↑e10
                         + 3 (π,ρ)107↑e10 <= 8
 BwCapConstr_slink19#23: 3 (π,ρ)62↑e7 + 4 (π,ρ)65↑e8
                         + 4 (π,ρ)72↑e8 + 4 (π,ρ)73↑e8
                         + 4 (π,ρ)74↑e8 + 2 (π,ρ)79↑e9
                         + 5 (π,ρ)90↑e9 + 5 (π,ρ)91↑e9
                         + 5 (π,ρ)92↑e9 <= 11
 BwCapConstr_slink20#24: (π,ρ)16↑e3 + (π,ρ)17↑e3
                         + 5 (π,ρ)19↑e3 + 5 (π,ρ)20↑e3
                         + 5 (π,ρ)21↑e3 + 5 (π,ρ)22↑e3
                         + 5 (π,ρ)23↑e3 + 5 (π,ρ)24↑e3
                         + 4 (π,ρ)25↑e3 + (π,ρ)26↑e3
                         + 5 (π,ρ)28↑e3 + 5 (π,ρ)29↑e3
                         + 5 (π,ρ)30↑e3 + 5 (π,ρ)34↑e6
                         + 5 (π,ρ)38↑e6 + 5 (π,ρ)41↑e6
                         + 5 (π,ρ)44↑e6 + 5 (π,ρ)47↑e6
                         + 5 (π,ρ)60↑e7 + (π,ρ)65↑e8
                         + 4 (π,ρ)66↑e8 + 4 (π,ρ)67↑e8
                         + 4 (π,ρ)68↑e8 + 4 (π,ρ)72↑e8
                         + 4 (π,ρ)73↑e8 + 4 (π,ρ)74↑e8
                         + 3 (π,ρ)77↑e8 + 5 (π,ρ)78↑e9
                         + 5 (π,ρ)79↑e9 + 2 (π,ρ)80↑e9
                         + 5 (π,ρ)81↑e9 + 2 (π,ρ)83↑e9
                         + 5 (π,ρ)84↑e9 + 5 (π,ρ)85↑e9
                         + 5 (π,ρ)86↑e9 + 2 (π,ρ)89↑e9
                         + 5 (π,ρ)90↑e9 + 5 (π,ρ)91↑e9
                         + 5 (π,ρ)92↑e9 + 3 (π,ρ)103↑e10
                         <= 15
 BwCapConstr_slink21#25: (π,ρ)0↑e1 + (π,ρ)1↑e1
                         + (π,ρ)2↑e1 + 5 (π,ρ)21↑e3
                         + 5 (π,ρ)22↑e3 + 5 (π,ρ)23↑e3
                         + 5 (π,ρ)24↑e3 + 5 (π,ρ)30↑e3
                         + 5 (π,ρ)48↑e7 + 5 (π,ρ)49↑e7
                         + 5 (π,ρ)51↑e7 + 5 (π,ρ)52↑e7
                         + 5 (π,ρ)54↑e7 + 5 (π,ρ)55↑e7
                         + 5 (π,ρ)56↑e7 + 5 (π,ρ)57↑e7
                         + 5 (π,ρ)58↑e7 + 5 (π,ρ)60↑e7
                         + 5 (π,ρ)61↑e7 + (π,ρ)63↑e8
                         + (π,ρ)64↑e8 + 4 (π,ρ)66↑e8
                         + 4 (π,ρ)67↑e8 + 4 (π,ρ)68↑e8
                         + 4 (π,ρ)69↑e8 + 4 (π,ρ)70↑e8
                         + 4 (π,ρ)71↑e8 + 3 (π,ρ)73↑e8
                         + (π,ρ)75↑e8 + 3 (π,ρ)76↑e8
                         + 5 (π,ρ)84↑e9 + 5 (π,ρ)85↑e9
                         + 5 (π,ρ)86↑e9 + 5 (π,ρ)92↑e9
                         + 3 (π,ρ)93↑e10 + 3 (π,ρ)96↑e10
                         + 3 (π,ρ)103↑e10 + (π,ρ)104↑e10
                         <= 10
 BwCapConstr_slink22#26: (π,ρ)17↑e3 + (π,ρ)49↑e7
                         + (π,ρ)52↑e7 + (π,ρ)58↑e7
                         + (π,ρ)94↑e10 + 3 (π,ρ)97↑e10
                         <= 5
 BwCapConstr_slink23#27: (π,ρ)9↑e1 + (π,ρ)10↑e1
                         + (π,ρ)11↑e1 + 2 (π,ρ)16↑e3
                         + 5 (π,ρ)19↑e3 + 5 (π,ρ)20↑e3
                         + 5 (π,ρ)21↑e3 + 2 (π,ρ)26↑e3
                         + 5 (π,ρ)28↑e3 + 5 (π,ρ)29↑e3
                         + 5 (π,ρ)30↑e3 + (π,ρ)77↑e8
                         + (π,ρ)83↑e9 + (π,ρ)89↑e9 <= 11
 BwCapConstr_slink24#28: (π,ρ)3↑e1 + (π,ρ)4↑e1
                         + (π,ρ)5↑e1 + 5 (π,ρ)17↑e3
                         + (π,ρ)50↑e7 + (π,ρ)53↑e7
                         + (π,ρ)59↑e7 <= 16
 BwCapConstr_slink25#29: (π,ρ)1↑e1 + (π,ρ)6↑e1
                         + (π,ρ)7↑e1 + (π,ρ)8↑e1
                         + (π,ρ)9↑e1 <= 11
 BwCapConstr_slink26#30: (π,ρ)11↑e1 <= 1
 BwCapConstr_slink27#31: <= 13
 BwCapConstr_slink28#32: 5 (π,ρ)28↑e3 + 5 (π,ρ)29↑e3
                         + 5 (π,ρ)30↑e3 <= 15
 BwCapConstr_slink29#33: (π,ρ)0↑e1 + (π,ρ)3↑e1
                         + (π,ρ)4↑e1 + (π,ρ)5↑e1
                         + (π,ρ)6↑e1 + (π,ρ)9↑e1
                         + (π,ρ)10↑e1 + (π,ρ)11↑e1
                         + (π,ρ)12↑e1 + 2 (π,ρ)16↑e3
                         + 2 (π,ρ)17↑e3 + 5 (π,ρ)19↑e3
                         + 5 (π,ρ)20↑e3 + 5 (π,ρ)21↑e3
                         + 5 (π,ρ)23↑e3 + 2 (π,ρ)26↑e3
                         + 2 (π,ρ)83↑e9 + 2 (π,ρ)89↑e9
                         <= 11
 BwCapConstr_slink30#34: 5 (π,ρ)50↑e7 + 5 (π,ρ)53↑e7
                         + 5 (π,ρ)59↑e7 + (π,ρ)77↑e8
                         <= 12
 BwCapConstr_slink31#35: (π,ρ)0↑e1 + (π,ρ)1↑e1
                         + (π,ρ)2↑e1 + (π,ρ)3↑e1
                         + (π,ρ)7↑e1 + (π,ρ)12↑e1
                         + (π,ρ)13↑e1 + (π,ρ)14↑e1
                         + 5 (π,ρ)16↑e3 + 5 (π,ρ)17↑e3
                         + 5 (π,ρ)18↑e3 + 2 (π,ρ)21↑e3
                         + 5 (π,ρ)22↑e3 + 5 (π,ρ)23↑e3
                         + 5 (π,ρ)24↑e3 + 2 (π,ρ)25↑e3
                         + 2 (π,ρ)30↑e3 + 5 (π,ρ)91↑e9
                         <= 13
 BwCapConstr_slink32#36: 5 (π,ρ)51↑e7 + 5 (π,ρ)52↑e7
                         + 5 (π,ρ)53↑e7 + 5 (π,ρ)56↑e7
                         + 5 (π,ρ)62↑e7 + (π,ρ)65↑e8
                         + (π,ρ)67↑e8 + 4 (π,ρ)70↑e8
                         + 4 (π,ρ)72↑e8 + 4 (π,ρ)73↑e8
                         + 4 (π,ρ)74↑e8 + 4 (π,ρ)75↑e8
                         + 4 (π,ρ)76↑e8 + 4 (π,ρ)77↑e8
                         + 5 (π,ρ)79↑e9 + 3 (π,ρ)105↑e10
                         + 3 (π,ρ)106↑e10
                         + 3 (π,ρ)107↑e10 <= 17
 BwCapConstr_slink33#37: (π,ρ)12↑e1 + (π,ρ)13↑e1
                         + (π,ρ)14↑e1 + 5 (π,ρ)16↑e3
                         + 5 (π,ρ)17↑e3 + 5 (π,ρ)18↑e3
                         + (π,ρ)20↑e3 + (π,ρ)29↑e3
                         + 2 (π,ρ)32↑e5 + 5 (π,ρ)48↑e7
                         + 5 (π,ρ)49↑e7 + 5 (π,ρ)50↑e7
                         + 5 (π,ρ)54↑e7 + 5 (π,ρ)60↑e7
                         + 5 (π,ρ)61↑e7 + 5 (π,ρ)62↑e7
                         + 4 (π,ρ)63↑e8 + 4 (π,ρ)64↑e8
                         + 4 (π,ρ)65↑e8 + (π,ρ)66↑e8
                         + 4 (π,ρ)69↑e8 + 5 (π,ρ)82↑e9
                         + 5 (π,ρ)87↑e9 + 5 (π,ρ)88↑e9
                         + 5 (π,ρ)89↑e9 + 5 (π,ρ)90↑e9
                         + 3 (π,ρ)99↑e10 + 3 (π,ρ)100↑e10
                         + 3 (π,ρ)101↑e10
                         + 3 (π,ρ)102↑e10 <= 12
 BwCapConstr_slink34#38: 2 (π,ρ)19↑e3 + 3 (π,ρ)22↑e3
                         + 5 (π,ρ)25↑e3 + 5 (π,ρ)26↑e3
                         + 5 (π,ρ)27↑e3 + 2 (π,ρ)28↑e3
                         + 5 (π,ρ)55↑e7 + 5 (π,ρ)57↑e7
                         + 5 (π,ρ)58↑e7 + 5 (π,ρ)59↑e7
                         + 2 (π,ρ)68↑e8 + 2 (π,ρ)71↑e8
                         + 5 (π,ρ)78↑e9 + 5 (π,ρ)79↑e9
                         + 5 (π,ρ)80↑e9 + 5 (π,ρ)81↑e9
                         + 5 (π,ρ)82↑e9 + 5 (π,ρ)83↑e9
                         + 2 (π,ρ)84↑e9 + (π,ρ)85↑e9
                         + 5 (π,ρ)86↑e9 + (π,ρ)87↑e9
                         + 2 (π,ρ)88↑e9 + 5 (π,ρ)90↑e9
                         + 5 (π,ρ)91↑e9 + 5 (π,ρ)92↑e9
                         + 3 (π,ρ)93↑e10 + 3 (π,ρ)94↑e10
                         + 3 (π,ρ)95↑e10 + 3 (π,ρ)96↑e10
                         + 3 (π,ρ)97↑e10 + 3 (π,ρ)98↑e10
                         + 3 (π,ρ)99↑e10 + 3 (π,ρ)100↑e10
                         + 3 (π,ρ)102↑e10
                         + 3 (π,ρ)103↑e10
                         + 3 (π,ρ)104↑e10
                         + 3 (π,ρ)105↑e10
                         + 3 (π,ρ)106↑e10 <= 11
 BwCapConstr_slink35#39: 3 (π,ρ)24↑e3 + 2 (π,ρ)32↑e5
                         + 5 (π,ρ)55↑e7 + 5 (π,ρ)57↑e7
                         + 5 (π,ρ)58↑e7 + 5 (π,ρ)59↑e7
                         + (π,ρ)68↑e8 + 4 (π,ρ)71↑e8
                         + 2 (π,ρ)78↑e9 + 2 (π,ρ)79↑e9
                         + 5 (π,ρ)84↑e9 + 5 (π,ρ)85↑e9
                         + 5 (π,ρ)86↑e9 + 5 (π,ρ)87↑e9
                         + 5 (π,ρ)88↑e9 + 5 (π,ρ)89↑e9
                         + (π,ρ)90↑e9 + 4 (π,ρ)92↑e9
                         + 3 (π,ρ)93↑e10 + 3 (π,ρ)94↑e10
                         + 3 (π,ρ)95↑e10 + 3 (π,ρ)96↑e10
                         + 3 (π,ρ)97↑e10 + 3 (π,ρ)98↑e10
                         + 3 (π,ρ)99↑e10 + 3 (π,ρ)100↑e10
                         + 3 (π,ρ)101↑e10
                         + 3 (π,ρ)102↑e10
                         + 3 (π,ρ)103↑e10
                         + 3 (π,ρ)104↑e10
                         + 3 (π,ρ)105↑e10
                         + 3 (π,ρ)106↑e10
                         + 3 (π,ρ)107↑e10 <= 11
 BwCapConstr_slink36#40: (π,ρ)2↑e1 + (π,ρ)10↑e1
                         + (π,ρ)18↑e3 + 2 (π,ρ)22↑e3
                         + 2 (π,ρ)24↑e3 + 5 (π,ρ)25↑e3
                         + 5 (π,ρ)26↑e3 + 5 (π,ρ)27↑e3
                         + 2 (π,ρ)80↑e9 + 2 (π,ρ)89↑e9
                         + (π,ρ)91↑e9 + 3 (π,ρ)101↑e10
                         + 3 (π,ρ)107↑e10 <= 13
 BwCapConstr_slink37#41: (π,ρ)1↑e1 + (π,ρ)4↑e1
                         + (π,ρ)5↑e1 + (π,ρ)6↑e1
                         + (π,ρ)7↑e1 + (π,ρ)8↑e1
                         + (π,ρ)9↑e1 + (π,ρ)11↑e1
                         + 5 (π,ρ)28↑e3 + 5 (π,ρ)29↑e3
                         + 5 (π,ρ)30↑e3 <= 15
Bounds
 0 <= vnp1 <= 1
 0 <= (π,ρ)0↑e1 <= 1
 0 <= (π,ρ)1↑e1 <= 1
 0 <= (π,ρ)2↑e1 <= 1
 0 <= (π,ρ)3↑e1 <= 1
 0 <= (π,ρ)4↑e1 <= 1
 0 <= (π,ρ)5↑e1 <= 1
 0 <= (π,ρ)6↑e1 <= 1
 0 <= (π,ρ)7↑e1 <= 1
 0 <= (π,ρ)8↑e1 <= 1
 0 <= (π,ρ)9↑e1 <= 1
 0 <= (π,ρ)10↑e1 <= 1
 0 <= (π,ρ)11↑e1 <= 1
 0 <= (π,ρ)12↑e1 <= 1
 0 <= (π,ρ)13↑e1 <= 1
 0 <= (π,ρ)14↑e1 <= 1
 0 <= (π,ρ)15↑e2 <= 1
 0 <= (π,ρ)16↑e3 <= 1
 0 <= (π,ρ)17↑e3 <= 1
 0 <= (π,ρ)18↑e3 <= 1
 0 <= (π,ρ)19↑e3 <= 1
 0 <= (π,ρ)20↑e3 <= 1
 0 <= (π,ρ)21↑e3 <= 1
 0 <= (π,ρ)22↑e3 <= 1
 0 <= (π,ρ)23↑e3 <= 1
 0 <= (π,ρ)24↑e3 <= 1
 0 <= (π,ρ)25↑e3 <= 1
 0 <= (π,ρ)26↑e3 <= 1
 0 <= (π,ρ)27↑e3 <= 1
 0 <= (π,ρ)28↑e3 <= 1
 0 <= (π,ρ)29↑e3 <= 1
 0 <= (π,ρ)30↑e3 <= 1
 0 <= (π,ρ)31↑e4 <= 1
 0 <= vnp2 <= 1
 0 <= (π,ρ)32↑e5 <= 1
 0 <= (π,ρ)33↑e6 <= 1
 0 <= (π,ρ)34↑e6 <= 1
 0 <= (π,ρ)35↑e6 <= 1
 0 <= (π,ρ)36↑e6 <= 1
 0 <= (π,ρ)37↑e6 <= 1
 0 <= (π,ρ)38↑e6 <= 1
 0 <= (π,ρ)39↑e6 <= 1
 0 <= (π,ρ)40↑e6 <= 1
 0 <= (π,ρ)41↑e6 <= 1
 0 <= (π,ρ)42↑e6 <= 1
 0 <= (π,ρ)43↑e6 <= 1
 0 <= (π,ρ)44↑e6 <= 1
 0 <= (π,ρ)45↑e6 <= 1
 0 <= (π,ρ)46↑e6 <= 1
 0 <= (π,ρ)47↑e6 <= 1
 0 <= (π,ρ)48↑e7 <= 1
 0 <= (π,ρ)49↑e7 <= 1
 0 <= (π,ρ)50↑e7 <= 1
 0 <= (π,ρ)51↑e7 <= 1
 0 <= (π,ρ)52↑e7 <= 1
 0 <= (π,ρ)53↑e7 <= 1
 0 <= (π,ρ)54↑e7 <= 1
 0 <= (π,ρ)55↑e7 <= 1
 0 <= (π,ρ)56↑e7 <= 1
 0 <= (π,ρ)57↑e7 <= 1
 0 <= (π,ρ)58↑e7 <= 1
 0 <= (π,ρ)59↑e7 <= 1
 0 <= (π,ρ)60↑e7 <= 1
 0 <= (π,ρ)61↑e7 <= 1
 0 <= (π,ρ)62↑e7 <= 1
 0 <= (π,ρ)63↑e8 <= 1
 0 <= (π,ρ)64↑e8 <= 1
 0 <= (π,ρ)65↑e8 <= 1
 0 <= (π,ρ)66↑e8 <= 1
 0 <= (π,ρ)67↑e8 <= 1
 0 <= (π,ρ)68↑e8 <= 1
 0 <= (π,ρ)69↑e8 <= 1
 0 <= (π,ρ)70↑e8 <= 1
 0 <= (π,ρ)71↑e8 <= 1
 0 <= (π,ρ)72↑e8 <= 1
 0 <= (π,ρ)73↑e8 <= 1
 0 <= (π,ρ)74↑e8 <= 1
 0 <= (π,ρ)75↑e8 <= 1
 0 <= (π,ρ)76↑e8 <= 1
 0 <= (π,ρ)77↑e8 <= 1
 0 <= (π,ρ)78↑e9 <= 1
 0 <= (π,ρ)79↑e9 <= 1
 0 <= (π,ρ)80↑e9 <= 1
 0 <= (π,ρ)81↑e9 <= 1
 0 <= (π,ρ)82↑e9 <= 1
 0 <= (π,ρ)83↑e9 <= 1
 0 <= (π,ρ)84↑e9 <= 1
 0 <= (π,ρ)85↑e9 <= 1
 0 <= (π,ρ)86↑e9 <= 1
 0 <= (π,ρ)87↑e9 <= 1
 0 <= (π,ρ)88↑e9 <= 1
 0 <= (π,ρ)89↑e9 <= 1
 0 <= (π,ρ)90↑e9 <= 1
 0 <= (π,ρ)91↑e9 <= 1
 0 <= (π,ρ)92↑e9 <= 1
 0 <= (π,ρ)93↑e10 <= 1
 0 <= (π,ρ)94↑e10 <= 1
 0 <= (π,ρ)95↑e10 <= 1
 0 <= (π,ρ)96↑e10 <= 1
 0 <= (π,ρ)97↑e10 <= 1
 0 <= (π,ρ)98↑e10 <= 1
 0 <= (π,ρ)99↑e10 <= 1
 0 <= (π,ρ)100↑e10 <= 1
 0 <= (π,ρ)101↑e10 <= 1
 0 <= (π,ρ)102↑e10 <= 1
 0 <= (π,ρ)103↑e10 <= 1
 0 <= (π,ρ)104↑e10 <= 1
 0 <= (π,ρ)105↑e10 <= 1
 0 <= (π,ρ)106↑e10 <= 1
 0 <= (π,ρ)107↑e10 <= 1
Binaries
 vnp1  (π,ρ)0↑e1  (π,ρ)1↑e1  (π,ρ)2↑e1 
 (π,ρ)3↑e1  (π,ρ)4↑e1  (π,ρ)5↑e1 
 (π,ρ)6↑e1  (π,ρ)7↑e1  (π,ρ)8↑e1 
 (π,ρ)9↑e1  (π,ρ)10↑e1  (π,ρ)11↑e1 
 (π,ρ)12↑e1  (π,ρ)13↑e1  (π,ρ)14↑e1 
 (π,ρ)15↑e2  (π,ρ)16↑e3  (π,ρ)17↑e3 
 (π,ρ)18↑e3  (π,ρ)19↑e3  (π,ρ)20↑e3 
 (π,ρ)21↑e3  (π,ρ)22↑e3  (π,ρ)23↑e3 
 (π,ρ)24↑e3  (π,ρ)25↑e3  (π,ρ)26↑e3 
 (π,ρ)27↑e3  (π,ρ)28↑e3  (π,ρ)29↑e3 
 (π,ρ)30↑e3  (π,ρ)31↑e4  vnp2  (π,ρ)32↑e5 
 (π,ρ)33↑e6  (π,ρ)34↑e6  (π,ρ)35↑e6 
 (π,ρ)36↑e6  (π,ρ)37↑e6  (π,ρ)38↑e6 
 (π,ρ)39↑e6  (π,ρ)40↑e6  (π,ρ)41↑e6 
 (π,ρ)42↑e6  (π,ρ)43↑e6  (π,ρ)44↑e6 
 (π,ρ)45↑e6  (π,ρ)46↑e6  (π,ρ)47↑e6 
 (π,ρ)48↑e7  (π,ρ)49↑e7  (π,ρ)50↑e7 
 (π,ρ)51↑e7  (π,ρ)52↑e7  (π,ρ)53↑e7 
 (π,ρ)54↑e7  (π,ρ)55↑e7  (π,ρ)56↑e7 
 (π,ρ)57↑e7  (π,ρ)58↑e7  (π,ρ)59↑e7 
 (π,ρ)60↑e7  (π,ρ)61↑e7  (π,ρ)62↑e7 
 (π,ρ)63↑e8  (π,ρ)64↑e8  (π,ρ)65↑e8 
 (π,ρ)66↑e8  (π,ρ)67↑e8  (π,ρ)68↑e8 
 (π,ρ)69↑e8  (π,ρ)70↑e8  (π,ρ)71↑e8 
 (π,ρ)72↑e8  (π,ρ)73↑e8  (π,ρ)74↑e8 
 (π,ρ)75↑e8  (π,ρ)76↑e8  (π,ρ)77↑e8 
 (π,ρ)78↑e9  (π,ρ)79↑e9  (π,ρ)80↑e9 
 (π,ρ)81↑e9  (π,ρ)82↑e9  (π,ρ)83↑e9 
 (π,ρ)84↑e9  (π,ρ)85↑e9  (π,ρ)86↑e9 
 (π,ρ)87↑e9  (π,ρ)88↑e9  (π,ρ)89↑e9 
 (π,ρ)90↑e9  (π,ρ)91↑e9  (π,ρ)92↑e9 
 (π,ρ)93↑e10  (π,ρ)94↑e10  (π,ρ)95↑e10 
 (π,ρ)96↑e10  (π,ρ)97↑e10  (π,ρ)98↑e10 
 (π,ρ)99↑e10  (π,ρ)100↑e10  (π,ρ)101↑e10 
 (π,ρ)102↑e10  (π,ρ)103↑e10  (π,ρ)104↑e10 
 (π,ρ)105↑e10  (π,ρ)106↑e10  (π,ρ)107↑e10 
End
